!B3LYP/G def2-SVP TightSCF NoRI pal8

%TDDFT
 nroots 10
 DOSOC TRUE
 TDA false
end

*xyzfile 0 1 opt.xyz



