!B3LYP/G def2-SVP TightSCF NoRI pal8

%TDDFT
 nroots 10
 TDA true
end

*xyzfile 0 1 opt.xyz



